problem_generation/data/GISP/train/er_n=66_m=1265_p=0.60_SET2_setparam=100.00_alpha=0.50_527.lp
maximize
OBJ:100x0 + 100x1 + 100x2 + 100x3 + 100x4 + 100x5 + 100x6 + 100x7 + 100x8 + 100x9 + 100x10 + 100x11 + 100x12 + 100x13 + 100x14 + 100x15 + 100x16 + 100x17 + 100x18 + 100x19 + 100x20 + 100x21 + 100x22 + 100x23 + 100x24 + 100x25 + 100x26 + 100x27 + 100x28 + 100x29 + 100x30 + 100x31 + 100x32 + 100x33 + 100x34 + 100x35 + 100x36 + 100x37 + 100x38 + 100x39 + 100x40 + 100x41 + 100x42 + 100x43 + 100x44 + 100x45 + 100x46 + 100x47 + 100x48 + 100x49 + 100x50 + 100x51 + 100x52 + 100x53 + 100x54 + 100x55 + 100x56 + 100x57 + 100x58 + 100x59 + 100x60 + 100x61 + 100x62 + 100x63 + 100x64 + 100x65 - y15_21 - y36_53 - y15_30 - y26_30 - y18_26 - y47_62 - y26_39 - y28_58 - y59_64 - y5_65 - y18_44 - y8_9 - y9_63 - y48_54 - y48_63 - y0_23 - y40_59 - y2_32 - y33_47 - y2_41 - y33_56 - y22_28 - y2_59 - y14_24 - y32_60 - y3_33 - y13_65 - y35_65 - y14_42 - y15_16 - y17_44 - y36_57 - y17_62 - y21_32 - y40_45 - y10_31 - y10_40 - y33_42 - y2_36 - y10_49 - y25_47 - y22_23 - y51_59 - y3_19 - y32_55 - y14_28 - y43_64 - y35_60 - y3_37 - y14_37 - y55_56 - y55_65 - y5_46 - y5_55 - y5_64 - y9_62 - y21_27 - y29_40 - y21_36 - y40_49 - y2_13 - y39_62 - y2_22 - y10_35 - y3_5 - y32_41 - y51_63 - y13_46 - y35_46 - y13_55 - y35_55 - y1_62 - y17_34 - y36_56 - y5_50 - y17_61 - y28_61 - y29_35 - y6_42 - y6_51 - y10_21 - y2_26 - y25_28 - y12_58 - y32_36 - y3_9 - y4_63 - y16_37 - y13_50 - y24_50 - y1_57 - y35_59 - y16_64 - y28_29 - y36_42 - y9_25 - y17_38 - y5_45 - y17_47 - y28_47 - y29_30 - y21_26 - y8_65 - y19_65 - y39_52 - y2_12 - y10_25 - y12_44 - y13_27 - y3_4 - y51_53 - y13_36 - y13_45 - y24_45 - y16_41 - y1_52 - y1_61 - y13_63 - y36_37 - y3_47 - y9_29 - y5_40 - y9_38 - y6_14 - y58_61 - y50_57 - y6_32 - y8_51 - y30_60 - y2_7 - y2_16 - y39_65 - y4_53 - y1_29 - y13_31 - y4_62 - y13_40 - y13_49 - y16_45 - y1_65 - y5_26 - y46_64 - y38_60 - y5_35 - y7_63 - y27_41 - y19_46 - y30_46 - y0_51 - y20_29 - y11_60 - y12_25 - y23_25 - y20_47 - y31_56 - y13_17 - y1_24 - y13_26 - y4_57 - y32_39 - y1_33 - y13_35 - y24_44 - y16_40 - y5_12 - y9_10 - y38_55 - y5_39 - y27_36 - y6_13 - y30_41 - y27_54 - y50_56 - y30_50 - y0_46 - y11_55 - y11_64 - y23_29 - y31_42 - y12_38 - y31_51 - y1_10 - y23_56 - y13_21 - y45_53 - y1_28 - y24_30 - y16_26 - y1_46 - y14_65 - y15_48 - y26_48 - y38_50 - y46_63 - y57_63 - y27_31 - y18_62 - y8_27 - y11_32 - y19_45 - y30_45 - y27_58 - y0_41 - y42_47 - y19_54 - y0_50 - y30_63 - y4_11 - y0_59 - y39_41 - y52_60 - y20_37 - y4_20 - y23_33 - y4_29 - y23_42 - y4_38 - y1_14 - y45_48 - y1_23 - y24_25 - y22_55 - y56_57 - y3_51 - y37_62 - y46_58 - y7_48 - y8_13 - y7_57 - y8_22 - y18_57 - y11_18 - y8_31 - y19_31 - y27_44 - y0_36 - y11_36 - y8_49 - y0_45 - y11_45 - y41_55 - y12_28 - y23_28 - y4_24 - y1_9 - y22_41 - y45_52 - y53_65 - y3_46 - y14_46 - y34_61 - y56_61 - y14_55 - y3_64 - y15_38 - y7_43 - y15_56 - y8_17 - y26_65 - y27_30 - y0_13 - y7_61 - y8_26 - y11_13 - y18_61 - y0_22 - y11_22 - y19_26 - y27_39 - y30_35 - y21_63 - y11_40 - y44_46 - y25_51 - y33_64 - y44_64 - y34_38 - y3_32 - y22_45 - y34_47 - y3_41 - y14_41 - y37_43 - y3_50 - y56_65 - y7_20 - y18_20 - y15_51 - y8_21 - y19_21 - y11_17 - y40_53 - y8_30 - y40_62 - y41_54 - y25_37 - y44_50 - y41_63 - y2_44 - y2_62 - y14_27 - y25_64 - y22_40 - y34_42 - y14_36 - y37_38 - y14_45 - y22_58 - y3_54 - y14_54 - y15_19 - y3_63 - y48_52 - y29_48 - y48_61 - y52_58 - y2_48 - y25_50 - y22_26 - y25_59 - y3_22 - y34_37 - y14_40 - y22_53 - y3_49 - y55_59 - y47_55 - y15_32 - y18_28 - y29_34 - y48_56 - y21_39 - y48_65 - y10_20 - y2_34 - y25_36 - y33_49 - y25_54 - y14_17 - y22_30 - y3_26 - y24_58 - y16_63 - y36_41 - y36_50 - y28_46 - y7_23 - y18_23 - y5_53 - y17_55 - y28_55 - y17_64 - y28_64 - y9_60 - y21_43 - y29_56 - y21_61 - y2_20 - y33_35 - y2_29 - y20_65 - y2_38 - y10_51 - y3_12 - y32_48 - y24_53 - y14_30 - y16_58 - y17_32 - y36_45 - y55_58 - y36_54 - y47_63 - y9_46 - y17_59 - y28_59 - y6_40 - y40_42 - y6_49 - y40_51 - y10_19 - y39_64 - y2_33 - y23_65 - y2_42 - y3_7 - y43_52 - y24_48 - y32_61 - y43_61 - y16_53 - y28_36 - y36_49 - y9_32 - y36_58 - y9_50 - y6_26 - y50_60 - y6_35 - y21_33 - y6_44 - y42_65 - y21_42 - y39_50 - y10_23 - y2_28 - y4_56 - y24_34 - y13_43 - y43_56 - y16_39 - y24_52 - y32_65 - y13_61 - y35_61 - y5_29 - y5_38 - y17_40 - y9_36 - y58_59 - y9_54 - y6_39 - y8_58 - y42_60 - y0_63 - y2_5 - y31_41 - y39_54 - y2_14 - y20_50 - y31_50 - y12_46 - y23_46 - y31_59 - y4_42 - y39_63 - y12_55 - y23_55 - y54_61 - y4_51 - y12_64 - y13_29 - y24_38 - y32_51 - y43_51 - y35_47 - y1_54 - y46_53 - y9_13 - y5_24 - y17_26 - y9_22 - y5_33 - y28_44 - y6_7 - y6_16 - y42_46 - y19_62 - y30_62 - y0_58 - y31_36 - y10_13 - y12_32 - y39_49 - y20_45 - y12_41 - y20_54 - y54_56 - y12_50 - y4_46 - y4_55 - y24_33 - y16_29 - y1_49 - y17_21 - y46_57 - y9_17 - y38_53 - y17_30 - y9_26 - y15_60 - y38_62 - y30_39 - y50_54 - y42_50 - y0_44 - y0_53 - y0_62 - y20_40 - y23_36 - y20_49 - y4_32 - y31_49 - y12_54 - y1_17 - y1_26 - y24_28 - y4_59 - y16_24 - y45_60 - y53_64 - y1_44 - y46_52 - y9_12 - y57_61 - y38_57 - y18_51 - y26_64 - y27_38 - y19_34 - y8_43 - y19_43 - y8_52 - y0_48 - y19_61 - y20_35 - y12_31 - y20_44 - y31_44 - y13_23 - y4_54 - y34_55 - y1_30 - y37_51 - y22_62 - y38_52 - y49_52 - y46_65 - y7_46 - y0_25 - y11_25 - y30_47 - y0_43 - y20_21 - y0_52 - y0_61 - y11_61 - y41_62 - y52_62 - y33_58 - y12_35 - y10_65 - y4_40 - y34_41 - y13_18 - y53_54 - y1_25 - y37_46 - y16_23 - y45_59 - y14_53 - y3_62 - y15_36 - y18_32 - y15_45 - y26_45 - y18_41 - y15_63 - y27_28 - y0_11 - y7_59 - y19_24 - y48_60 - y27_37 - y0_20 - y11_20 - y0_29 - y29_65 - y8_42 - y19_42 - y30_42 - y19_51 - y30_51 - y41_48 - y4_8 - y10_60 - y44_62 - y1_2 - y25_58 - y4_35 - y22_34 - y34_36 - y2_65 - y34_45 - y1_20 - y14_39 - y22_52 - y45_54 - y14_48 - y3_57 - y7_18 - y15_31 - y26_31 - y7_27 - y15_40 - y18_36 - y26_49 - y18_45 - y15_58 - y26_58 - y7_54 - y27_32 - y19_37 - y30_37 - y0_33 - y41_52 - y44_48 - y52_61 - y25_44 - y2_51 - y25_53 - y22_29 - y2_60 - y22_38 - y3_52 - y14_52 - y37_54 - y7_13 - y14_61 - y18_22 - y59_60 - y18_31 - y17_63 - y7_40 - y7_49 - y40_46 - y19_23 - y6_53 - y29_55 - y21_51 - y40_64 - y33_34 - y25_30 - y4_7 - y33_43 - y41_56 - y33_52 - y25_48 - y10_59 - y33_61 - y2_55 - y22_33 - y2_64 - y34_44 - y14_47
 Subject to
C1: x0+x6 <=1 
C2: x0+x8 <=1 
C3: x0+x10 <=1 
C4: x0+x11-y0_11 <=1 
C5: x0+x12 <=1 
C6: x0+x13-y0_13 <=1 
C7: x0+x17 <=1 
C8: x0+x20-y0_20 <=1 
C9: x0+x22-y0_22 <=1 
C10: x0+x23-y0_23 <=1 
C11: x0+x25-y0_25 <=1 
C12: x0+x26 <=1 
C13: x0+x27 <=1 
C14: x0+x28 <=1 
C15: x0+x29-y0_29 <=1 
C16: x0+x30 <=1 
C17: x0+x32 <=1 
C18: x0+x33-y0_33 <=1 
C19: x0+x34 <=1 
C20: x0+x35 <=1 
C21: x0+x36-y0_36 <=1 
C22: x0+x40 <=1 
C23: x0+x41-y0_41 <=1 
C24: x0+x43-y0_43 <=1 
C25: x0+x44-y0_44 <=1 
C26: x0+x45-y0_45 <=1 
C27: x0+x46-y0_46 <=1 
C28: x0+x48-y0_48 <=1 
C29: x0+x49 <=1 
C30: x0+x50-y0_50 <=1 
C31: x0+x51-y0_51 <=1 
C32: x0+x52-y0_52 <=1 
C33: x0+x53-y0_53 <=1 
C34: x0+x54 <=1 
C35: x0+x55 <=1 
C36: x0+x56 <=1 
C37: x0+x57 <=1 
C38: x0+x58-y0_58 <=1 
C39: x0+x59-y0_59 <=1 
C40: x0+x60 <=1 
C41: x0+x61-y0_61 <=1 
C42: x0+x62-y0_62 <=1 
C43: x0+x63-y0_63 <=1 
C44: x1+x2-y1_2 <=1 
C45: x1+x7 <=1 
C46: x1+x9-y1_9 <=1 
C47: x1+x10-y1_10 <=1 
C48: x1+x12 <=1 
C49: x1+x14-y1_14 <=1 
C50: x1+x17-y1_17 <=1 
C51: x1+x19 <=1 
C52: x1+x20-y1_20 <=1 
C53: x1+x23-y1_23 <=1 
C54: x1+x24-y1_24 <=1 
C55: x1+x25-y1_25 <=1 
C56: x1+x26-y1_26 <=1 
C57: x1+x28-y1_28 <=1 
C58: x1+x29-y1_29 <=1 
C59: x1+x30-y1_30 <=1 
C60: x1+x31 <=1 
C61: x1+x33-y1_33 <=1 
C62: x1+x34 <=1 
C63: x1+x35 <=1 
C64: x1+x37 <=1 
C65: x1+x38 <=1 
C66: x1+x39 <=1 
C67: x1+x42 <=1 
C68: x1+x43 <=1 
C69: x1+x44-y1_44 <=1 
C70: x1+x45 <=1 
C71: x1+x46-y1_46 <=1 
C72: x1+x49-y1_49 <=1 
C73: x1+x50 <=1 
C74: x1+x52-y1_52 <=1 
C75: x1+x53 <=1 
C76: x1+x54-y1_54 <=1 
C77: x1+x55 <=1 
C78: x1+x56 <=1 
C79: x1+x57-y1_57 <=1 
C80: x1+x60 <=1 
C81: x1+x61-y1_61 <=1 
C82: x1+x62-y1_62 <=1 
C83: x1+x63 <=1 
C84: x1+x64 <=1 
C85: x1+x65-y1_65 <=1 
C86: x2+x3 <=1 
C87: x2+x5-y2_5 <=1 
C88: x2+x7-y2_7 <=1 
C89: x2+x9 <=1 
C90: x2+x12-y2_12 <=1 
C91: x2+x13-y2_13 <=1 
C92: x2+x14-y2_14 <=1 
C93: x2+x16-y2_16 <=1 
C94: x2+x19 <=1 
C95: x2+x20-y2_20 <=1 
C96: x2+x22-y2_22 <=1 
C97: x2+x23 <=1 
C98: x2+x25 <=1 
C99: x2+x26-y2_26 <=1 
C100: x2+x28-y2_28 <=1 
C101: x2+x29-y2_29 <=1 
C102: x2+x30 <=1 
C103: x2+x31 <=1 
C104: x2+x32-y2_32 <=1 
C105: x2+x33-y2_33 <=1 
C106: x2+x34-y2_34 <=1 
C107: x2+x36-y2_36 <=1 
C108: x2+x38-y2_38 <=1 
C109: x2+x39 <=1 
C110: x2+x40 <=1 
C111: x2+x41-y2_41 <=1 
C112: x2+x42-y2_42 <=1 
C113: x2+x43 <=1 
C114: x2+x44-y2_44 <=1 
C115: x2+x46 <=1 
C116: x2+x48-y2_48 <=1 
C117: x2+x51-y2_51 <=1 
C118: x2+x53 <=1 
C119: x2+x55-y2_55 <=1 
C120: x2+x57 <=1 
C121: x2+x58 <=1 
C122: x2+x59-y2_59 <=1 
C123: x2+x60-y2_60 <=1 
C124: x2+x62-y2_62 <=1 
C125: x2+x64-y2_64 <=1 
C126: x2+x65-y2_65 <=1 
C127: x3+x4-y3_4 <=1 
C128: x3+x5-y3_5 <=1 
C129: x3+x6 <=1 
C130: x3+x7-y3_7 <=1 
C131: x3+x8 <=1 
C132: x3+x9-y3_9 <=1 
C133: x3+x11 <=1 
C134: x3+x12-y3_12 <=1 
C135: x3+x13 <=1 
C136: x3+x16 <=1 
C137: x3+x18 <=1 
C138: x3+x19-y3_19 <=1 
C139: x3+x22-y3_22 <=1 
C140: x3+x24 <=1 
C141: x3+x26-y3_26 <=1 
C142: x3+x29 <=1 
C143: x3+x30 <=1 
C144: x3+x32-y3_32 <=1 
C145: x3+x33-y3_33 <=1 
C146: x3+x34 <=1 
C147: x3+x36 <=1 
C148: x3+x37-y3_37 <=1 
C149: x3+x39 <=1 
C150: x3+x40 <=1 
C151: x3+x41-y3_41 <=1 
C152: x3+x45 <=1 
C153: x3+x46-y3_46 <=1 
C154: x3+x47-y3_47 <=1 
C155: x3+x49-y3_49 <=1 
C156: x3+x50-y3_50 <=1 
C157: x3+x51-y3_51 <=1 
C158: x3+x52-y3_52 <=1 
C159: x3+x54-y3_54 <=1 
C160: x3+x55 <=1 
C161: x3+x57-y3_57 <=1 
C162: x3+x59 <=1 
C163: x3+x62-y3_62 <=1 
C164: x3+x63-y3_63 <=1 
C165: x3+x64-y3_64 <=1 
C166: x3+x65 <=1 
C167: x4+x5 <=1 
C168: x4+x7-y4_7 <=1 
C169: x4+x8-y4_8 <=1 
C170: x4+x9 <=1 
C171: x4+x11-y4_11 <=1 
C172: x4+x16 <=1 
C173: x4+x20-y4_20 <=1 
C174: x4+x21 <=1 
C175: x4+x22 <=1 
C176: x4+x24-y4_24 <=1 
C177: x4+x25 <=1 
C178: x4+x29-y4_29 <=1 
C179: x4+x30 <=1 
C180: x4+x32-y4_32 <=1 
C181: x4+x34 <=1 
C182: x4+x35-y4_35 <=1 
C183: x4+x36 <=1 
C184: x4+x38-y4_38 <=1 
C185: x4+x40-y4_40 <=1 
C186: x4+x41 <=1 
C187: x4+x42-y4_42 <=1 
C188: x4+x44 <=1 
C189: x4+x46-y4_46 <=1 
C190: x4+x49 <=1 
C191: x4+x51-y4_51 <=1 
C192: x4+x53-y4_53 <=1 
C193: x4+x54-y4_54 <=1 
C194: x4+x55-y4_55 <=1 
C195: x4+x56-y4_56 <=1 
C196: x4+x57-y4_57 <=1 
C197: x4+x58 <=1 
C198: x4+x59-y4_59 <=1 
C199: x4+x62-y4_62 <=1 
C200: x4+x63-y4_63 <=1 
C201: x5+x10 <=1 
C202: x5+x11 <=1 
C203: x5+x12-y5_12 <=1 
C204: x5+x14 <=1 
C205: x5+x15 <=1 
C206: x5+x17 <=1 
C207: x5+x18 <=1 
C208: x5+x20 <=1 
C209: x5+x24-y5_24 <=1 
C210: x5+x25 <=1 
C211: x5+x26-y5_26 <=1 
C212: x5+x28 <=1 
C213: x5+x29-y5_29 <=1 
C214: x5+x30 <=1 
C215: x5+x31 <=1 
C216: x5+x33-y5_33 <=1 
C217: x5+x35-y5_35 <=1 
C218: x5+x36 <=1 
C219: x5+x38-y5_38 <=1 
C220: x5+x39-y5_39 <=1 
C221: x5+x40-y5_40 <=1 
C222: x5+x42 <=1 
C223: x5+x45-y5_45 <=1 
C224: x5+x46-y5_46 <=1 
C225: x5+x47 <=1 
C226: x5+x50-y5_50 <=1 
C227: x5+x53-y5_53 <=1 
C228: x5+x55-y5_55 <=1 
C229: x5+x56 <=1 
C230: x5+x59 <=1 
C231: x5+x63 <=1 
C232: x5+x64-y5_64 <=1 
C233: x5+x65-y5_65 <=1 
C234: x6+x7-y6_7 <=1 
C235: x6+x9 <=1 
C236: x6+x12 <=1 
C237: x6+x13-y6_13 <=1 
C238: x6+x14-y6_14 <=1 
C239: x6+x16-y6_16 <=1 
C240: x6+x19 <=1 
C241: x6+x25 <=1 
C242: x6+x26-y6_26 <=1 
C243: x6+x31 <=1 
C244: x6+x32-y6_32 <=1 
C245: x6+x34 <=1 
C246: x6+x35-y6_35 <=1 
C247: x6+x36 <=1 
C248: x6+x37 <=1 
C249: x6+x39-y6_39 <=1 
C250: x6+x40-y6_40 <=1 
C251: x6+x41 <=1 
C252: x6+x42-y6_42 <=1 
C253: x6+x44-y6_44 <=1 
C254: x6+x47 <=1 
C255: x6+x49-y6_49 <=1 
C256: x6+x51-y6_51 <=1 
C257: x6+x53-y6_53 <=1 
C258: x6+x57 <=1 
C259: x6+x60 <=1 
C260: x6+x62 <=1 
C261: x6+x63 <=1 
C262: x6+x64 <=1 
C263: x7+x8 <=1 
C264: x7+x13-y7_13 <=1 
C265: x7+x14 <=1 
C266: x7+x15 <=1 
C267: x7+x17 <=1 
C268: x7+x18-y7_18 <=1 
C269: x7+x20-y7_20 <=1 
C270: x7+x23-y7_23 <=1 
C271: x7+x24 <=1 
C272: x7+x27-y7_27 <=1 
C273: x7+x28 <=1 
C274: x7+x31 <=1 
C275: x7+x34 <=1 
C276: x7+x35 <=1 
C277: x7+x38 <=1 
C278: x7+x40-y7_40 <=1 
C279: x7+x42 <=1 
C280: x7+x43-y7_43 <=1 
C281: x7+x44 <=1 
C282: x7+x46-y7_46 <=1 
C283: x7+x48-y7_48 <=1 
C284: x7+x49-y7_49 <=1 
C285: x7+x51 <=1 
C286: x7+x52 <=1 
C287: x7+x53 <=1 
C288: x7+x54-y7_54 <=1 
C289: x7+x57-y7_57 <=1 
C290: x7+x59-y7_59 <=1 
C291: x7+x60 <=1 
C292: x7+x61-y7_61 <=1 
C293: x7+x62 <=1 
C294: x7+x63-y7_63 <=1 
C295: x7+x64 <=1 
C296: x7+x65 <=1 
C297: x8+x9-y8_9 <=1 
C298: x8+x12 <=1 
C299: x8+x13-y8_13 <=1 
C300: x8+x15 <=1 
C301: x8+x17-y8_17 <=1 
C302: x8+x21-y8_21 <=1 
C303: x8+x22-y8_22 <=1 
C304: x8+x23 <=1 
C305: x8+x24 <=1 
C306: x8+x26-y8_26 <=1 
C307: x8+x27-y8_27 <=1 
C308: x8+x28 <=1 
C309: x8+x29 <=1 
C310: x8+x30-y8_30 <=1 
C311: x8+x31-y8_31 <=1 
C312: x8+x32 <=1 
C313: x8+x34 <=1 
C314: x8+x35 <=1 
C315: x8+x36 <=1 
C316: x8+x37 <=1 
C317: x8+x40 <=1 
C318: x8+x41 <=1 
C319: x8+x42-y8_42 <=1 
C320: x8+x43-y8_43 <=1 
C321: x8+x46 <=1 
C322: x8+x48 <=1 
C323: x8+x49-y8_49 <=1 
C324: x8+x50 <=1 
C325: x8+x51-y8_51 <=1 
C326: x8+x52-y8_52 <=1 
C327: x8+x57 <=1 
C328: x8+x58-y8_58 <=1 
C329: x8+x59 <=1 
C330: x8+x62 <=1 
C331: x8+x63 <=1 
C332: x8+x64 <=1 
C333: x8+x65-y8_65 <=1 
C334: x9+x10-y9_10 <=1 
C335: x9+x11 <=1 
C336: x9+x12-y9_12 <=1 
C337: x9+x13-y9_13 <=1 
C338: x9+x15 <=1 
C339: x9+x17-y9_17 <=1 
C340: x9+x19 <=1 
C341: x9+x22-y9_22 <=1 
C342: x9+x23 <=1 
C343: x9+x25-y9_25 <=1 
C344: x9+x26-y9_26 <=1 
C345: x9+x28 <=1 
C346: x9+x29-y9_29 <=1 
C347: x9+x32-y9_32 <=1 
C348: x9+x36-y9_36 <=1 
C349: x9+x37 <=1 
C350: x9+x38-y9_38 <=1 
C351: x9+x39 <=1 
C352: x9+x41 <=1 
C353: x9+x42 <=1 
C354: x9+x46-y9_46 <=1 
C355: x9+x50-y9_50 <=1 
C356: x9+x52 <=1 
C357: x9+x53 <=1 
C358: x9+x54-y9_54 <=1 
C359: x9+x55 <=1 
C360: x9+x58 <=1 
C361: x9+x60-y9_60 <=1 
C362: x9+x61 <=1 
C363: x9+x62-y9_62 <=1 
C364: x9+x63-y9_63 <=1 
C365: x9+x65 <=1 
C366: x10+x11 <=1 
C367: x10+x13-y10_13 <=1 
C368: x10+x14 <=1 
C369: x10+x15 <=1 
C370: x10+x18 <=1 
C371: x10+x19-y10_19 <=1 
C372: x10+x20-y10_20 <=1 
C373: x10+x21-y10_21 <=1 
C374: x10+x23-y10_23 <=1 
C375: x10+x24 <=1 
C376: x10+x25-y10_25 <=1 
C377: x10+x26 <=1 
C378: x10+x28 <=1 
C379: x10+x29 <=1 
C380: x10+x30 <=1 
C381: x10+x31-y10_31 <=1 
C382: x10+x32 <=1 
C383: x10+x35-y10_35 <=1 
C384: x10+x36 <=1 
C385: x10+x39 <=1 
C386: x10+x40-y10_40 <=1 
C387: x10+x42 <=1 
C388: x10+x43 <=1 
C389: x10+x44 <=1 
C390: x10+x46 <=1 
C391: x10+x47 <=1 
C392: x10+x49-y10_49 <=1 
C393: x10+x51-y10_51 <=1 
C394: x10+x52 <=1 
C395: x10+x56 <=1 
C396: x10+x57 <=1 
C397: x10+x58 <=1 
C398: x10+x59-y10_59 <=1 
C399: x10+x60-y10_60 <=1 
C400: x10+x63 <=1 
C401: x10+x64 <=1 
C402: x10+x65-y10_65 <=1 
C403: x11+x13-y11_13 <=1 
C404: x11+x14 <=1 
C405: x11+x15 <=1 
C406: x11+x17-y11_17 <=1 
C407: x11+x18-y11_18 <=1 
C408: x11+x20-y11_20 <=1 
C409: x11+x22-y11_22 <=1 
C410: x11+x24 <=1 
C411: x11+x25-y11_25 <=1 
C412: x11+x27 <=1 
C413: x11+x28 <=1 
C414: x11+x32-y11_32 <=1 
C415: x11+x35 <=1 
C416: x11+x36-y11_36 <=1 
C417: x11+x37 <=1 
C418: x11+x38 <=1 
C419: x11+x39 <=1 
C420: x11+x40-y11_40 <=1 
C421: x11+x41 <=1 
C422: x11+x42 <=1 
C423: x11+x44 <=1 
C424: x11+x45-y11_45 <=1 
C425: x11+x49 <=1 
C426: x11+x54 <=1 
C427: x11+x55-y11_55 <=1 
C428: x11+x58 <=1 
C429: x11+x59 <=1 
C430: x11+x60-y11_60 <=1 
C431: x11+x61-y11_61 <=1 
C432: x11+x62 <=1 
C433: x11+x64-y11_64 <=1 
C434: x11+x65 <=1 
C435: x12+x16 <=1 
C436: x12+x18 <=1 
C437: x12+x24 <=1 
C438: x12+x25-y12_25 <=1 
C439: x12+x27 <=1 
C440: x12+x28-y12_28 <=1 
C441: x12+x30 <=1 
C442: x12+x31-y12_31 <=1 
C443: x12+x32-y12_32 <=1 
C444: x12+x34 <=1 
C445: x12+x35-y12_35 <=1 
C446: x12+x36 <=1 
C447: x12+x37 <=1 
C448: x12+x38-y12_38 <=1 
C449: x12+x41-y12_41 <=1 
C450: x12+x42 <=1 
C451: x12+x43 <=1 
C452: x12+x44-y12_44 <=1 
C453: x12+x46-y12_46 <=1 
C454: x12+x47 <=1 
C455: x12+x48 <=1 
C456: x12+x50-y12_50 <=1 
C457: x12+x51 <=1 
C458: x12+x53 <=1 
C459: x12+x54-y12_54 <=1 
C460: x12+x55-y12_55 <=1 
C461: x12+x56 <=1 
C462: x12+x57 <=1 
C463: x12+x58-y12_58 <=1 
C464: x12+x63 <=1 
C465: x12+x64-y12_64 <=1 
C466: x12+x65 <=1 
C467: x13+x17-y13_17 <=1 
C468: x13+x18-y13_18 <=1 
C469: x13+x21-y13_21 <=1 
C470: x13+x22 <=1 
C471: x13+x23-y13_23 <=1 
C472: x13+x25 <=1 
C473: x13+x26-y13_26 <=1 
C474: x13+x27-y13_27 <=1 
C475: x13+x28 <=1 
C476: x13+x29-y13_29 <=1 
C477: x13+x31-y13_31 <=1 
C478: x13+x35-y13_35 <=1 
C479: x13+x36-y13_36 <=1 
C480: x13+x37 <=1 
C481: x13+x39 <=1 
C482: x13+x40-y13_40 <=1 
C483: x13+x42 <=1 
C484: x13+x43-y13_43 <=1 
C485: x13+x45-y13_45 <=1 
C486: x13+x46-y13_46 <=1 
C487: x13+x49-y13_49 <=1 
C488: x13+x50-y13_50 <=1 
C489: x13+x51 <=1 
C490: x13+x53 <=1 
C491: x13+x55-y13_55 <=1 
C492: x13+x56 <=1 
C493: x13+x60 <=1 
C494: x13+x61-y13_61 <=1 
C495: x13+x63-y13_63 <=1 
C496: x13+x64 <=1 
C497: x13+x65-y13_65 <=1 
C498: x14+x15 <=1 
C499: x14+x17-y14_17 <=1 
C500: x14+x18 <=1 
C501: x14+x21 <=1 
C502: x14+x22 <=1 
C503: x14+x24-y14_24 <=1 
C504: x14+x27-y14_27 <=1 
C505: x14+x28-y14_28 <=1 
C506: x14+x30-y14_30 <=1 
C507: x14+x34 <=1 
C508: x14+x36-y14_36 <=1 
C509: x14+x37-y14_37 <=1 
C510: x14+x38 <=1 
C511: x14+x39-y14_39 <=1 
C512: x14+x40-y14_40 <=1 
C513: x14+x41-y14_41 <=1 
C514: x14+x42-y14_42 <=1 
C515: x14+x44 <=1 
C516: x14+x45-y14_45 <=1 
C517: x14+x46-y14_46 <=1 
C518: x14+x47-y14_47 <=1 
C519: x14+x48-y14_48 <=1 
C520: x14+x49 <=1 
C521: x14+x51 <=1 
C522: x14+x52-y14_52 <=1 
C523: x14+x53-y14_53 <=1 
C524: x14+x54-y14_54 <=1 
C525: x14+x55-y14_55 <=1 
C526: x14+x56 <=1 
C527: x14+x57 <=1 
C528: x14+x61-y14_61 <=1 
C529: x14+x62 <=1 
C530: x14+x64 <=1 
C531: x14+x65-y14_65 <=1 
C532: x15+x16-y15_16 <=1 
C533: x15+x19-y15_19 <=1 
C534: x15+x21-y15_21 <=1 
C535: x15+x22 <=1 
C536: x15+x25 <=1 
C537: x15+x28 <=1 
C538: x15+x29 <=1 
C539: x15+x30-y15_30 <=1 
C540: x15+x31-y15_31 <=1 
C541: x15+x32-y15_32 <=1 
C542: x15+x34 <=1 
C543: x15+x35 <=1 
C544: x15+x36-y15_36 <=1 
C545: x15+x38-y15_38 <=1 
C546: x15+x40-y15_40 <=1 
C547: x15+x44 <=1 
C548: x15+x45-y15_45 <=1 
C549: x15+x47 <=1 
C550: x15+x48-y15_48 <=1 
C551: x15+x51-y15_51 <=1 
C552: x15+x54 <=1 
C553: x15+x56-y15_56 <=1 
C554: x15+x57 <=1 
C555: x15+x58-y15_58 <=1 
C556: x15+x59 <=1 
C557: x15+x60-y15_60 <=1 
C558: x15+x61 <=1 
C559: x15+x62 <=1 
C560: x15+x63-y15_63 <=1 
C561: x15+x64 <=1 
C562: x15+x65 <=1 
C563: x16+x23-y16_23 <=1 
C564: x16+x24-y16_24 <=1 
C565: x16+x25 <=1 
C566: x16+x26-y16_26 <=1 
C567: x16+x29-y16_29 <=1 
C568: x16+x30 <=1 
C569: x16+x31 <=1 
C570: x16+x32 <=1 
C571: x16+x33 <=1 
C572: x16+x35 <=1 
C573: x16+x36 <=1 
C574: x16+x37-y16_37 <=1 
C575: x16+x39-y16_39 <=1 
C576: x16+x40-y16_40 <=1 
C577: x16+x41-y16_41 <=1 
C578: x16+x43 <=1 
C579: x16+x44 <=1 
C580: x16+x45-y16_45 <=1 
C581: x16+x48 <=1 
C582: x16+x49 <=1 
C583: x16+x50 <=1 
C584: x16+x53-y16_53 <=1 
C585: x16+x54 <=1 
C586: x16+x56 <=1 
C587: x16+x57 <=1 
C588: x16+x58-y16_58 <=1 
C589: x16+x60 <=1 
C590: x16+x63-y16_63 <=1 
C591: x16+x64-y16_64 <=1 
C592: x17+x19 <=1 
C593: x17+x21-y17_21 <=1 
C594: x17+x24 <=1 
C595: x17+x25 <=1 
C596: x17+x26-y17_26 <=1 
C597: x17+x28 <=1 
C598: x17+x30-y17_30 <=1 
C599: x17+x32-y17_32 <=1 
C600: x17+x33 <=1 
C601: x17+x34-y17_34 <=1 
C602: x17+x36 <=1 
C603: x17+x37 <=1 
C604: x17+x38-y17_38 <=1 
C605: x17+x39 <=1 
C606: x17+x40-y17_40 <=1 
C607: x17+x41 <=1 
C608: x17+x44-y17_44 <=1 
C609: x17+x45 <=1 
C610: x17+x46 <=1 
C611: x17+x47-y17_47 <=1 
C612: x17+x55-y17_55 <=1 
C613: x17+x58 <=1 
C614: x17+x59-y17_59 <=1 
C615: x17+x60 <=1 
C616: x17+x61-y17_61 <=1 
C617: x17+x62-y17_62 <=1 
C618: x17+x63-y17_63 <=1 
C619: x17+x64-y17_64 <=1 
C620: x18+x19 <=1 
C621: x18+x20-y18_20 <=1 
C622: x18+x22-y18_22 <=1 
C623: x18+x23-y18_23 <=1 
C624: x18+x26-y18_26 <=1 
C625: x18+x28-y18_28 <=1 
C626: x18+x29 <=1 
C627: x18+x30 <=1 
C628: x18+x31-y18_31 <=1 
C629: x18+x32-y18_32 <=1 
C630: x18+x33 <=1 
C631: x18+x34 <=1 
C632: x18+x35 <=1 
C633: x18+x36-y18_36 <=1 
C634: x18+x40 <=1 
C635: x18+x41-y18_41 <=1 
C636: x18+x44-y18_44 <=1 
C637: x18+x45-y18_45 <=1 
C638: x18+x46 <=1 
C639: x18+x47 <=1 
C640: x18+x51-y18_51 <=1 
C641: x18+x54 <=1 
C642: x18+x57-y18_57 <=1 
C643: x18+x60 <=1 
C644: x18+x61-y18_61 <=1 
C645: x18+x62-y18_62 <=1 
C646: x18+x63 <=1 
C647: x18+x64 <=1 
C648: x18+x65 <=1 
C649: x19+x21-y19_21 <=1 
C650: x19+x23-y19_23 <=1 
C651: x19+x24-y19_24 <=1 
C652: x19+x26-y19_26 <=1 
C653: x19+x31-y19_31 <=1 
C654: x19+x32 <=1 
C655: x19+x33 <=1 
C656: x19+x34-y19_34 <=1 
C657: x19+x37-y19_37 <=1 
C658: x19+x38 <=1 
C659: x19+x39 <=1 
C660: x19+x40 <=1 
C661: x19+x42-y19_42 <=1 
C662: x19+x43-y19_43 <=1 
C663: x19+x44 <=1 
C664: x19+x45-y19_45 <=1 
C665: x19+x46-y19_46 <=1 
C666: x19+x48 <=1 
C667: x19+x51-y19_51 <=1 
C668: x19+x53 <=1 
C669: x19+x54-y19_54 <=1 
C670: x19+x59 <=1 
C671: x19+x61-y19_61 <=1 
C672: x19+x62-y19_62 <=1 
C673: x19+x63 <=1 
C674: x19+x65-y19_65 <=1 
C675: x20+x21-y20_21 <=1 
C676: x20+x22 <=1 
C677: x20+x26 <=1 
C678: x20+x27 <=1 
C679: x20+x29-y20_29 <=1 
C680: x20+x30 <=1 
C681: x20+x32 <=1 
C682: x20+x35-y20_35 <=1 
C683: x20+x37-y20_37 <=1 
C684: x20+x40-y20_40 <=1 
C685: x20+x44-y20_44 <=1 
C686: x20+x45-y20_45 <=1 
C687: x20+x47-y20_47 <=1 
C688: x20+x49-y20_49 <=1 
C689: x20+x50-y20_50 <=1 
C690: x20+x51 <=1 
C691: x20+x52 <=1 
C692: x20+x54-y20_54 <=1 
C693: x20+x56 <=1 
C694: x20+x58 <=1 
C695: x20+x59 <=1 
C696: x20+x65-y20_65 <=1 
C697: x21+x22 <=1 
C698: x21+x23 <=1 
C699: x21+x24 <=1 
C700: x21+x25 <=1 
C701: x21+x26-y21_26 <=1 
C702: x21+x27-y21_27 <=1 
C703: x21+x28 <=1 
C704: x21+x30 <=1 
C705: x21+x32-y21_32 <=1 
C706: x21+x33-y21_33 <=1 
C707: x21+x36-y21_36 <=1 
C708: x21+x37 <=1 
C709: x21+x39-y21_39 <=1 
C710: x21+x40 <=1 
C711: x21+x42-y21_42 <=1 
C712: x21+x43-y21_43 <=1 
C713: x21+x44 <=1 
C714: x21+x45 <=1 
C715: x21+x46 <=1 
C716: x21+x47 <=1 
C717: x21+x50 <=1 
C718: x21+x51-y21_51 <=1 
C719: x21+x56 <=1 
C720: x21+x57 <=1 
C721: x21+x58 <=1 
C722: x21+x59 <=1 
C723: x21+x60 <=1 
C724: x21+x61-y21_61 <=1 
C725: x21+x63-y21_63 <=1 
C726: x21+x64 <=1 
C727: x22+x23-y22_23 <=1 
C728: x22+x26-y22_26 <=1 
C729: x22+x27 <=1 
C730: x22+x28-y22_28 <=1 
C731: x22+x29-y22_29 <=1 
C732: x22+x30-y22_30 <=1 
C733: x22+x32 <=1 
C734: x22+x33-y22_33 <=1 
C735: x22+x34-y22_34 <=1 
C736: x22+x38-y22_38 <=1 
C737: x22+x40-y22_40 <=1 
C738: x22+x41-y22_41 <=1 
C739: x22+x42 <=1 
C740: x22+x44 <=1 
C741: x22+x45-y22_45 <=1 
C742: x22+x52-y22_52 <=1 
C743: x22+x53-y22_53 <=1 
C744: x22+x55-y22_55 <=1 
C745: x22+x57 <=1 
C746: x22+x58-y22_58 <=1 
C747: x22+x62-y22_62 <=1 
C748: x22+x63 <=1 
C749: x22+x64 <=1 
C750: x23+x24 <=1 
C751: x23+x25-y23_25 <=1 
C752: x23+x27 <=1 
C753: x23+x28-y23_28 <=1 
C754: x23+x29-y23_29 <=1 
C755: x23+x30 <=1 
C756: x23+x33-y23_33 <=1 
C757: x23+x35 <=1 
C758: x23+x36-y23_36 <=1 
C759: x23+x37 <=1 
C760: x23+x38 <=1 
C761: x23+x39 <=1 
C762: x23+x40 <=1 
C763: x23+x42-y23_42 <=1 
C764: x23+x46-y23_46 <=1 
C765: x23+x48 <=1 
C766: x23+x49 <=1 
C767: x23+x53 <=1 
C768: x23+x54 <=1 
C769: x23+x55-y23_55 <=1 
C770: x23+x56-y23_56 <=1 
C771: x23+x58 <=1 
C772: x23+x60 <=1 
C773: x23+x64 <=1 
C774: x23+x65-y23_65 <=1 
C775: x24+x25-y24_25 <=1 
C776: x24+x26 <=1 
C777: x24+x28-y24_28 <=1 
C778: x24+x30-y24_30 <=1 
C779: x24+x33-y24_33 <=1 
C780: x24+x34-y24_34 <=1 
C781: x24+x35 <=1 
C782: x24+x36 <=1 
C783: x24+x38-y24_38 <=1 
C784: x24+x39 <=1 
C785: x24+x42 <=1 
C786: x24+x43 <=1 
C787: x24+x44-y24_44 <=1 
C788: x24+x45-y24_45 <=1 
C789: x24+x46 <=1 
C790: x24+x47 <=1 
C791: x24+x48-y24_48 <=1 
C792: x24+x50-y24_50 <=1 
C793: x24+x51 <=1 
C794: x24+x52-y24_52 <=1 
C795: x24+x53-y24_53 <=1 
C796: x24+x57 <=1 
C797: x24+x58-y24_58 <=1 
C798: x24+x61 <=1 
C799: x24+x63 <=1 
C800: x25+x27 <=1 
C801: x25+x28-y25_28 <=1 
C802: x25+x29 <=1 
C803: x25+x30-y25_30 <=1 
C804: x25+x31 <=1 
C805: x25+x32 <=1 
C806: x25+x35 <=1 
C807: x25+x36-y25_36 <=1 
C808: x25+x37-y25_37 <=1 
C809: x25+x39 <=1 
C810: x25+x42 <=1 
C811: x25+x43 <=1 
C812: x25+x44-y25_44 <=1 
C813: x25+x45 <=1 
C814: x25+x46 <=1 
C815: x25+x47-y25_47 <=1 
C816: x25+x48-y25_48 <=1 
C817: x25+x50-y25_50 <=1 
C818: x25+x51-y25_51 <=1 
C819: x25+x52 <=1 
C820: x25+x53-y25_53 <=1 
C821: x25+x54-y25_54 <=1 
C822: x25+x55 <=1 
C823: x25+x56 <=1 
C824: x25+x58-y25_58 <=1 
C825: x25+x59-y25_59 <=1 
C826: x25+x63 <=1 
C827: x25+x64-y25_64 <=1 
C828: x26+x28 <=1 
C829: x26+x29 <=1 
C830: x26+x30-y26_30 <=1 
C831: x26+x31-y26_31 <=1 
C832: x26+x33 <=1 
C833: x26+x34 <=1 
C834: x26+x35 <=1 
C835: x26+x36 <=1 
C836: x26+x38 <=1 
C837: x26+x39-y26_39 <=1 
C838: x26+x44 <=1 
C839: x26+x45-y26_45 <=1 
C840: x26+x46 <=1 
C841: x26+x48-y26_48 <=1 
C842: x26+x49-y26_49 <=1 
C843: x26+x54 <=1 
C844: x26+x55 <=1 
C845: x26+x58-y26_58 <=1 
C846: x26+x63 <=1 
C847: x26+x64-y26_64 <=1 
C848: x26+x65-y26_65 <=1 
C849: x27+x28-y27_28 <=1 
C850: x27+x30-y27_30 <=1 
C851: x27+x31-y27_31 <=1 
C852: x27+x32-y27_32 <=1 
C853: x27+x33 <=1 
C854: x27+x36-y27_36 <=1 
C855: x27+x37-y27_37 <=1 
C856: x27+x38-y27_38 <=1 
C857: x27+x39-y27_39 <=1 
C858: x27+x41-y27_41 <=1 
C859: x27+x43 <=1 
C860: x27+x44-y27_44 <=1 
C861: x27+x46 <=1 
C862: x27+x49 <=1 
C863: x27+x52 <=1 
C864: x27+x54-y27_54 <=1 
C865: x27+x58-y27_58 <=1 
C866: x27+x60 <=1 
C867: x27+x64 <=1 
C868: x28+x29-y28_29 <=1 
C869: x28+x36-y28_36 <=1 
C870: x28+x42 <=1 
C871: x28+x43 <=1 
C872: x28+x44-y28_44 <=1 
C873: x28+x45 <=1 
C874: x28+x46-y28_46 <=1 
C875: x28+x47-y28_47 <=1 
C876: x28+x48 <=1 
C877: x28+x53 <=1 
C878: x28+x55-y28_55 <=1 
C879: x28+x56 <=1 
C880: x28+x57 <=1 
C881: x28+x58-y28_58 <=1 
C882: x28+x59-y28_59 <=1 
C883: x28+x61-y28_61 <=1 
C884: x28+x62 <=1 
C885: x28+x64-y28_64 <=1 
C886: x28+x65 <=1 
C887: x29+x30-y29_30 <=1 
C888: x29+x34-y29_34 <=1 
C889: x29+x35-y29_35 <=1 
C890: x29+x36 <=1 
C891: x29+x38 <=1 
C892: x29+x39 <=1 
C893: x29+x40-y29_40 <=1 
C894: x29+x42 <=1 
C895: x29+x43 <=1 
C896: x29+x44 <=1 
C897: x29+x47 <=1 
C898: x29+x48-y29_48 <=1 
C899: x29+x54 <=1 
C900: x29+x55-y29_55 <=1 
C901: x29+x56-y29_56 <=1 
C902: x29+x58 <=1 
C903: x29+x61 <=1 
C904: x29+x65-y29_65 <=1 
C905: x30+x31 <=1 
C906: x30+x33 <=1 
C907: x30+x35-y30_35 <=1 
C908: x30+x36 <=1 
C909: x30+x37-y30_37 <=1 
C910: x30+x39-y30_39 <=1 
C911: x30+x40 <=1 
C912: x30+x41-y30_41 <=1 
C913: x30+x42-y30_42 <=1 
C914: x30+x45-y30_45 <=1 
C915: x30+x46-y30_46 <=1 
C916: x30+x47-y30_47 <=1 
C917: x30+x50-y30_50 <=1 
C918: x30+x51-y30_51 <=1 
C919: x30+x52 <=1 
C920: x30+x53 <=1 
C921: x30+x54 <=1 
C922: x30+x55 <=1 
C923: x30+x57 <=1 
C924: x30+x58 <=1 
C925: x30+x59 <=1 
C926: x30+x60-y30_60 <=1 
C927: x30+x62-y30_62 <=1 
C928: x30+x63-y30_63 <=1 
C929: x30+x64 <=1 
C930: x31+x32 <=1 
C931: x31+x36-y31_36 <=1 
C932: x31+x38 <=1 
C933: x31+x41-y31_41 <=1 
C934: x31+x42-y31_42 <=1 
C935: x31+x44-y31_44 <=1 
C936: x31+x45 <=1 
C937: x31+x49-y31_49 <=1 
C938: x31+x50-y31_50 <=1 
C939: x31+x51-y31_51 <=1 
C940: x31+x55 <=1 
C941: x31+x56-y31_56 <=1 
C942: x31+x59-y31_59 <=1 
C943: x31+x60 <=1 
C944: x32+x35 <=1 
C945: x32+x36-y32_36 <=1 
C946: x32+x39-y32_39 <=1 
C947: x32+x41-y32_41 <=1 
C948: x32+x43 <=1 
C949: x32+x45 <=1 
C950: x32+x48-y32_48 <=1 
C951: x32+x51-y32_51 <=1 
C952: x32+x55-y32_55 <=1 
C953: x32+x56 <=1 
C954: x32+x59 <=1 
C955: x32+x60-y32_60 <=1 
C956: x32+x61-y32_61 <=1 
C957: x32+x63 <=1 
C958: x32+x65-y32_65 <=1 
C959: x33+x34-y33_34 <=1 
C960: x33+x35-y33_35 <=1 
C961: x33+x38 <=1 
C962: x33+x39 <=1 
C963: x33+x40 <=1 
C964: x33+x41 <=1 
C965: x33+x42-y33_42 <=1 
C966: x33+x43-y33_43 <=1 
C967: x33+x45 <=1 
C968: x33+x46 <=1 
C969: x33+x47-y33_47 <=1 
C970: x33+x48 <=1 
C971: x33+x49-y33_49 <=1 
C972: x33+x50 <=1 
C973: x33+x51 <=1 
C974: x33+x52-y33_52 <=1 
C975: x33+x56-y33_56 <=1 
C976: x33+x58-y33_58 <=1 
C977: x33+x59 <=1 
C978: x33+x61-y33_61 <=1 
C979: x33+x63 <=1 
C980: x33+x64-y33_64 <=1 
C981: x33+x65 <=1 
C982: x34+x36-y34_36 <=1 
C983: x34+x37-y34_37 <=1 
C984: x34+x38-y34_38 <=1 
C985: x34+x39 <=1 
C986: x34+x41-y34_41 <=1 
C987: x34+x42-y34_42 <=1 
C988: x34+x44-y34_44 <=1 
C989: x34+x45-y34_45 <=1 
C990: x34+x46 <=1 
C991: x34+x47-y34_47 <=1 
C992: x34+x48 <=1 
C993: x34+x53 <=1 
C994: x34+x55-y34_55 <=1 
C995: x34+x56 <=1 
C996: x34+x58 <=1 
C997: x34+x61-y34_61 <=1 
C998: x34+x63 <=1 
C999: x34+x65 <=1 
C1000: x35+x36 <=1 
C1001: x35+x39 <=1 
C1002: x35+x40 <=1 
C1003: x35+x41 <=1 
C1004: x35+x42 <=1 
C1005: x35+x43 <=1 
C1006: x35+x44 <=1 
C1007: x35+x45 <=1 
C1008: x35+x46-y35_46 <=1 
C1009: x35+x47-y35_47 <=1 
C1010: x35+x54 <=1 
C1011: x35+x55-y35_55 <=1 
C1012: x35+x59-y35_59 <=1 
C1013: x35+x60-y35_60 <=1 
C1014: x35+x61-y35_61 <=1 
C1015: x35+x64 <=1 
C1016: x35+x65-y35_65 <=1 
C1017: x36+x37-y36_37 <=1 
C1018: x36+x38 <=1 
C1019: x36+x41-y36_41 <=1 
C1020: x36+x42-y36_42 <=1 
C1021: x36+x43 <=1 
C1022: x36+x44 <=1 
C1023: x36+x45-y36_45 <=1 
C1024: x36+x46 <=1 
C1025: x36+x49-y36_49 <=1 
C1026: x36+x50-y36_50 <=1 
C1027: x36+x53-y36_53 <=1 
C1028: x36+x54-y36_54 <=1 
C1029: x36+x56-y36_56 <=1 
C1030: x36+x57-y36_57 <=1 
C1031: x36+x58-y36_58 <=1 
C1032: x37+x38-y37_38 <=1 
C1033: x37+x39 <=1 
C1034: x37+x40 <=1 
C1035: x37+x41 <=1 
C1036: x37+x42 <=1 
C1037: x37+x43-y37_43 <=1 
C1038: x37+x46-y37_46 <=1 
C1039: x37+x48 <=1 
C1040: x37+x50 <=1 
C1041: x37+x51-y37_51 <=1 
C1042: x37+x52 <=1 
C1043: x37+x54-y37_54 <=1 
C1044: x37+x55 <=1 
C1045: x37+x57 <=1 
C1046: x37+x59 <=1 
C1047: x37+x60 <=1 
C1048: x37+x62-y37_62 <=1 
C1049: x37+x65 <=1 
C1050: x38+x40 <=1 
C1051: x38+x42 <=1 
C1052: x38+x43 <=1 
C1053: x38+x45 <=1 
C1054: x38+x46 <=1 
C1055: x38+x48 <=1 
C1056: x38+x49 <=1 
C1057: x38+x50-y38_50 <=1 
C1058: x38+x51 <=1 
C1059: x38+x52-y38_52 <=1 
C1060: x38+x53-y38_53 <=1 
C1061: x38+x54 <=1 
C1062: x38+x55-y38_55 <=1 
C1063: x38+x56 <=1 
C1064: x38+x57-y38_57 <=1 
C1065: x38+x59 <=1 
C1066: x38+x60-y38_60 <=1 
C1067: x38+x62-y38_62 <=1 
C1068: x39+x40 <=1 
C1069: x39+x41-y39_41 <=1 
C1070: x39+x42 <=1 
C1071: x39+x44 <=1 
C1072: x39+x45 <=1 
C1073: x39+x48 <=1 
C1074: x39+x49-y39_49 <=1 
C1075: x39+x50-y39_50 <=1 
C1076: x39+x52-y39_52 <=1 
C1077: x39+x54-y39_54 <=1 
C1078: x39+x57 <=1 
C1079: x39+x60 <=1 
C1080: x39+x62-y39_62 <=1 
C1081: x39+x63-y39_63 <=1 
C1082: x39+x64-y39_64 <=1 
C1083: x39+x65-y39_65 <=1 
C1084: x40+x41 <=1 
C1085: x40+x42-y40_42 <=1 
C1086: x40+x45-y40_45 <=1 
C1087: x40+x46-y40_46 <=1 
C1088: x40+x49-y40_49 <=1 
C1089: x40+x51-y40_51 <=1 
C1090: x40+x52 <=1 
C1091: x40+x53-y40_53 <=1 
C1092: x40+x56 <=1 
C1093: x40+x58 <=1 
C1094: x40+x59-y40_59 <=1 
C1095: x40+x61 <=1 
C1096: x40+x62-y40_62 <=1 
C1097: x40+x64-y40_64 <=1 
C1098: x41+x44 <=1 
C1099: x41+x45 <=1 
C1100: x41+x46 <=1 
C1101: x41+x47 <=1 
C1102: x41+x48-y41_48 <=1 
C1103: x41+x49 <=1 
C1104: x41+x50 <=1 
C1105: x41+x51 <=1 
C1106: x41+x52-y41_52 <=1 
C1107: x41+x53 <=1 
C1108: x41+x54-y41_54 <=1 
C1109: x41+x55-y41_55 <=1 
C1110: x41+x56-y41_56 <=1 
C1111: x41+x57 <=1 
C1112: x41+x58 <=1 
C1113: x41+x61 <=1 
C1114: x41+x62-y41_62 <=1 
C1115: x41+x63-y41_63 <=1 
C1116: x41+x64 <=1 
C1117: x42+x46-y42_46 <=1 
C1118: x42+x47-y42_47 <=1 
C1119: x42+x48 <=1 
C1120: x42+x50-y42_50 <=1 
C1121: x42+x51 <=1 
C1122: x42+x53 <=1 
C1123: x42+x56 <=1 
C1124: x42+x57 <=1 
C1125: x42+x60-y42_60 <=1 
C1126: x42+x61 <=1 
C1127: x42+x64 <=1 
C1128: x42+x65-y42_65 <=1 
C1129: x43+x46 <=1 
C1130: x43+x47 <=1 
C1131: x43+x49 <=1 
C1132: x43+x51-y43_51 <=1 
C1133: x43+x52-y43_52 <=1 
C1134: x43+x54 <=1 
C1135: x43+x56-y43_56 <=1 
C1136: x43+x60 <=1 
C1137: x43+x61-y43_61 <=1 
C1138: x43+x62 <=1 
C1139: x43+x64-y43_64 <=1 
C1140: x43+x65 <=1 
C1141: x44+x45 <=1 
C1142: x44+x46-y44_46 <=1 
C1143: x44+x47 <=1 
C1144: x44+x48-y44_48 <=1 
C1145: x44+x49 <=1 
C1146: x44+x50-y44_50 <=1 
C1147: x44+x52 <=1 
C1148: x44+x53 <=1 
C1149: x44+x54 <=1 
C1150: x44+x55 <=1 
C1151: x44+x57 <=1 
C1152: x44+x58 <=1 
C1153: x44+x62-y44_62 <=1 
C1154: x44+x64-y44_64 <=1 
C1155: x44+x65 <=1 
C1156: x45+x48-y45_48 <=1 
C1157: x45+x51 <=1 
C1158: x45+x52-y45_52 <=1 
C1159: x45+x53-y45_53 <=1 
C1160: x45+x54-y45_54 <=1 
C1161: x45+x55 <=1 
C1162: x45+x57 <=1 
C1163: x45+x58 <=1 
C1164: x45+x59-y45_59 <=1 
C1165: x45+x60-y45_60 <=1 
C1166: x45+x64 <=1 
C1167: x46+x48 <=1 
C1168: x46+x52-y46_52 <=1 
C1169: x46+x53-y46_53 <=1 
C1170: x46+x56 <=1 
C1171: x46+x57-y46_57 <=1 
C1172: x46+x58-y46_58 <=1 
C1173: x46+x60 <=1 
C1174: x46+x63-y46_63 <=1 
C1175: x46+x64-y46_64 <=1 
C1176: x46+x65-y46_65 <=1 
C1177: x47+x51 <=1 
C1178: x47+x52 <=1 
C1179: x47+x55-y47_55 <=1 
C1180: x47+x56 <=1 
C1181: x47+x61 <=1 
C1182: x47+x62-y47_62 <=1 
C1183: x47+x63-y47_63 <=1 
C1184: x47+x64 <=1 
C1185: x47+x65 <=1 
C1186: x48+x50 <=1 
C1187: x48+x51 <=1 
C1188: x48+x52-y48_52 <=1 
C1189: x48+x54-y48_54 <=1 
C1190: x48+x55 <=1 
C1191: x48+x56-y48_56 <=1 
C1192: x48+x60-y48_60 <=1 
C1193: x48+x61-y48_61 <=1 
C1194: x48+x62 <=1 
C1195: x48+x63-y48_63 <=1 
C1196: x48+x65-y48_65 <=1 
C1197: x49+x51 <=1 
C1198: x49+x52-y49_52 <=1 
C1199: x49+x59 <=1 
C1200: x50+x51 <=1 
C1201: x50+x54-y50_54 <=1 
C1202: x50+x56-y50_56 <=1 
C1203: x50+x57-y50_57 <=1 
C1204: x50+x60-y50_60 <=1 
C1205: x50+x62 <=1 
C1206: x50+x63 <=1 
C1207: x51+x53-y51_53 <=1 
C1208: x51+x59-y51_59 <=1 
C1209: x51+x63-y51_63 <=1 
C1210: x51+x64 <=1 
C1211: x52+x53 <=1 
C1212: x52+x57 <=1 
C1213: x52+x58-y52_58 <=1 
C1214: x52+x59 <=1 
C1215: x52+x60-y52_60 <=1 
C1216: x52+x61-y52_61 <=1 
C1217: x52+x62-y52_62 <=1 
C1218: x52+x64 <=1 
C1219: x52+x65 <=1 
C1220: x53+x54-y53_54 <=1 
C1221: x53+x56 <=1 
C1222: x53+x57 <=1 
C1223: x53+x58 <=1 
C1224: x53+x60 <=1 
C1225: x53+x61 <=1 
C1226: x53+x63 <=1 
C1227: x53+x64-y53_64 <=1 
C1228: x53+x65-y53_65 <=1 
C1229: x54+x55 <=1 
C1230: x54+x56-y54_56 <=1 
C1231: x54+x58 <=1 
C1232: x54+x59 <=1 
C1233: x54+x61-y54_61 <=1 
C1234: x54+x63 <=1 
C1235: x54+x64 <=1 
C1236: x54+x65 <=1 
C1237: x55+x56-y55_56 <=1 
C1238: x55+x58-y55_58 <=1 
C1239: x55+x59-y55_59 <=1 
C1240: x55+x63 <=1 
C1241: x55+x65-y55_65 <=1 
C1242: x56+x57-y56_57 <=1 
C1243: x56+x58 <=1 
C1244: x56+x61-y56_61 <=1 
C1245: x56+x62 <=1 
C1246: x56+x64 <=1 
C1247: x56+x65-y56_65 <=1 
C1248: x57+x58 <=1 
C1249: x57+x60 <=1 
C1250: x57+x61-y57_61 <=1 
C1251: x57+x62 <=1 
C1252: x57+x63-y57_63 <=1 
C1253: x58+x59-y58_59 <=1 
C1254: x58+x61-y58_61 <=1 
C1255: x58+x63 <=1 
C1256: x58+x65 <=1 
C1257: x59+x60-y59_60 <=1 
C1258: x59+x63 <=1 
C1259: x59+x64-y59_64 <=1 
C1260: x60+x63 <=1 
C1261: x61+x62 <=1 
C1262: x61+x63 <=1 
C1263: x61+x65 <=1 
C1264: x62+x63 <=1 
C1265: x62+x64 <=1 

binary
x0
x1
x2
x3
x4
x5
x6
x7
x8
x9
x10
x11
x12
x13
x14
x15
x16
x17
x18
x19
x20
x21
x22
x23
x24
x25
x26
x27
x28
x29
x30
x31
x32
x33
x34
x35
x36
x37
x38
x39
x40
x41
x42
x43
x44
x45
x46
x47
x48
x49
x50
x51
x52
x53
x54
x55
x56
x57
x58
x59
x60
x61
x62
x63
x64
x65
