problem_generation/data/GISP/train/er_n=66_m=1265_p=0.60_SET2_setparam=100.00_alpha=0.50_527.sol
objective value:                                 1270
x1                                                  1 	(obj:100)
x2                                                  1 	(obj:100)
x6                                                  1 	(obj:100)
x8                                                  1 	(obj:100)
x11                                                 1 	(obj:100)
x16                                                 1 	(obj:100)
x17                                                 1 	(obj:100)
x18                                                 1 	(obj:100)
x21                                                 1 	(obj:100)
x26                                                 1 	(obj:100)
x51                                                 1 	(obj:100)
x52                                                 1 	(obj:100)
x61                                                 1 	(obj:100)
y18_26                                              1 	(obj:-1)
y17_61                                              1 	(obj:-1)
y6_51                                               1 	(obj:-1)
y2_26                                               1 	(obj:-1)
y21_26                                              1 	(obj:-1)
y1_52                                               1 	(obj:-1)
y1_61                                               1 	(obj:-1)
y8_51                                               1 	(obj:-1)
y2_16                                               1 	(obj:-1)
y16_26                                              1 	(obj:-1)
y11_18                                              1 	(obj:-1)
y8_17                                               1 	(obj:-1)
y8_26                                               1 	(obj:-1)
y18_61                                              1 	(obj:-1)
y8_21                                               1 	(obj:-1)
y11_17                                              1 	(obj:-1)
y21_61                                              1 	(obj:-1)
y6_26                                               1 	(obj:-1)
y17_26                                              1 	(obj:-1)
y6_16                                               1 	(obj:-1)
y17_21                                              1 	(obj:-1)
y1_17                                               1 	(obj:-1)
y1_26                                               1 	(obj:-1)
y18_51                                              1 	(obj:-1)
y8_52                                               1 	(obj:-1)
y11_61                                              1 	(obj:-1)
y1_2                                                1 	(obj:-1)
y52_61                                              1 	(obj:-1)
y2_51                                               1 	(obj:-1)
y21_51                                              1 	(obj:-1)
